c Reduced graph for GEOM80b_2 generated by Cyril Grelier
p edge 76 635
e 1 2
e 1 3
e 1 4
e 1 5
e 1 6
e 1 7
e 1 8
e 1 9
e 1 10
e 1 11
e 1 12
e 1 14
e 1 16
e 1 17
e 1 18
e 1 19
e 1 20
e 1 21
e 1 22
e 1 24
e 1 28
e 1 29
e 1 30
e 1 31
e 1 34
e 1 36
e 1 43
e 1 44
e 1 57
e 2 3
e 2 5
e 2 6
e 2 7
e 2 8
e 2 10
e 2 15
e 2 16
e 2 18
e 2 19
e 2 20
e 2 21
e 2 22
e 2 24
e 2 27
e 2 32
e 2 38
e 2 40
e 2 41
e 2 51
e 2 58
e 2 59
e 2 60
e 2 62
e 3 4
e 3 5
e 3 6
e 3 7
e 3 8
e 3 10
e 3 11
e 3 12
e 3 15
e 3 16
e 3 17
e 3 18
e 3 19
e 3 20
e 3 21
e 3 22
e 3 24
e 3 27
e 3 29
e 3 31
e 3 32
e 3 36
e 3 40
e 4 5
e 4 6
e 4 7
e 4 8
e 4 9
e 4 11
e 4 13
e 4 14
e 4 16
e 4 20
e 4 21
e 4 22
e 4 23
e 4 24
e 4 25
e 4 26
e 4 28
e 4 30
e 4 35
e 4 39
e 4 44
e 4 68
e 5 6
e 5 7
e 5 8
e 5 9
e 5 11
e 5 12
e 5 14
e 5 16
e 5 17
e 5 20
e 5 21
e 5 22
e 5 23
e 5 24
e 5 28
e 5 29
e 5 30
e 5 31
e 5 34
e 5 44
e 6 7
e 6 8
e 6 10
e 6 13
e 6 14
e 6 15
e 6 16
e 6 20
e 6 21
e 6 22
e 6 23
e 6 24
e 6 25
e 6 26
e 6 33
e 6 38
e 6 39
e 6 42
e 6 48
e 7 8
e 7 9
e 7 10
e 7 11
e 7 13
e 7 14
e 7 15
e 7 16
e 7 17
e 7 18
e 7 19
e 7 20
e 7 21
e 7 22
e 7 23
e 7 24
e 7 28
e 7 30
e 8 9
e 8 10
e 8 11
e 8 13
e 8 14
e 8 15
e 8 16
e 8 17
e 8 18
e 8 19
e 8 20
e 8 21
e 8 22
e 8 23
e 8 24
e 8 28
e 8 30
e 9 11
e 9 12
e 9 14
e 9 17
e 9 28
e 9 29
e 9 30
e 9 31
e 9 34
e 9 37
e 9 44
e 9 47
e 9 49
e 9 55
e 9 56
e 9 67
e 9 68
e 9 71
e 10 15
e 10 16
e 10 18
e 10 19
e 10 20
e 10 21
e 10 22
e 10 24
e 10 27
e 10 32
e 10 38
e 10 41
e 10 51
e 10 58
e 10 59
e 10 60
e 10 62
e 11 12
e 11 17
e 11 20
e 11 21
e 11 28
e 11 29
e 11 30
e 11 31
e 11 34
e 11 36
e 11 37
e 11 43
e 11 44
e 11 47
e 11 49
e 11 57
e 12 17
e 12 28
e 12 29
e 12 30
e 12 31
e 12 34
e 12 36
e 12 37
e 12 43
e 12 44
e 12 47
e 12 49
e 12 55
e 12 56
e 12 57
e 12 67
e 12 68
e 12 71
e 13 14
e 13 20
e 13 21
e 13 23
e 13 25
e 13 26
e 13 33
e 13 35
e 13 39
e 13 45
e 13 46
e 13 48
e 13 50
e 13 52
e 13 53
e 13 54
e 13 61
e 13 63
e 13 65
e 14 20
e 14 23
e 14 25
e 14 26
e 14 28
e 14 30
e 14 34
e 14 35
e 14 39
e 14 44
e 14 53
e 14 61
e 14 65
e 14 66
e 14 68
e 15 16
e 15 18
e 15 19
e 15 21
e 15 22
e 15 24
e 15 27
e 15 32
e 15 40
e 15 41
e 15 51
e 15 58
e 15 59
e 15 60
e 15 62
e 15 64
e 16 18
e 16 19
e 16 20
e 16 21
e 16 22
e 16 24
e 16 27
e 16 33
e 16 38
e 16 41
e 16 42
e 16 48
e 17 21
e 17 28
e 17 29
e 17 30
e 17 31
e 17 34
e 17 36
e 17 37
e 17 43
e 17 47
e 17 49
e 17 55
e 17 56
e 17 57
e 18 19
e 18 21
e 18 22
e 18 24
e 18 27
e 18 32
e 18 36
e 18 40
e 18 51
e 18 58
e 18 59
e 18 60
e 18 62
e 18 64
e 19 21
e 19 22
e 19 24
e 19 27
e 19 32
e 19 36
e 19 40
e 19 51
e 19 58
e 19 59
e 19 60
e 19 62
e 19 64
e 20 21
e 20 22
e 20 23
e 20 24
e 20 25
e 20 26
e 20 33
e 20 38
e 20 39
e 21 22
e 21 23
e 21 24
e 21 27
e 21 38
e 22 24
e 22 27
e 22 33
e 22 38
e 22 41
e 22 42
e 23 25
e 23 26
e 23 28
e 23 30
e 23 35
e 23 39
e 23 44
e 23 52
e 23 53
e 23 61
e 23 65
e 23 66
e 24 27
e 24 38
e 24 41
e 24 42
e 24 60
e 25 26
e 25 33
e 25 35
e 25 39
e 25 45
e 25 46
e 25 50
e 25 52
e 25 53
e 25 54
e 25 61
e 25 63
e 25 65
e 25 66
e 26 33
e 26 35
e 26 39
e 26 45
e 26 46
e 26 48
e 26 50
e 26 52
e 26 53
e 26 54
e 26 61
e 26 63
e 26 65
e 27 32
e 27 40
e 27 41
e 27 51
e 27 58
e 27 59
e 27 60
e 27 62
e 27 64
e 28 30
e 28 34
e 28 35
e 28 37
e 28 39
e 28 44
e 28 66
e 28 68
e 29 31
e 29 32
e 29 36
e 29 40
e 29 43
e 29 47
e 29 49
e 29 55
e 29 56
e 29 57
e 29 67
e 30 34
e 30 35
e 30 37
e 30 44
e 30 66
e 30 68
e 31 32
e 31 36
e 31 37
e 31 43
e 31 47
e 31 49
e 31 55
e 31 56
e 31 57
e 31 67
e 32 36
e 32 40
e 32 43
e 32 51
e 32 57
e 32 58
e 32 59
e 32 64
e 33 38
e 33 42
e 33 45
e 33 46
e 33 48
e 33 50
e 33 54
e 33 69
e 33 70
e 33 72
e 34 37
e 34 44
e 34 49
e 34 55
e 34 66
e 34 67
e 34 68
e 34 71
e 35 39
e 35 44
e 35 52
e 35 53
e 35 61
e 35 65
e 35 66
e 35 68
e 36 40
e 36 43
e 36 47
e 36 56
e 36 57
e 36 59
e 37 44
e 37 47
e 37 49
e 37 55
e 37 56
e 37 67
e 37 68
e 37 71
e 38 41
e 38 42
e 38 45
e 38 46
e 38 48
e 38 70
e 38 73
e 39 50
e 39 52
e 39 53
e 39 61
e 39 65
e 39 66
e 40 43
e 40 51
e 40 57
e 40 58
e 40 59
e 40 64
e 41 42
e 41 51
e 41 60
e 41 62
e 41 70
e 41 74
e 41 76
e 42 45
e 42 46
e 42 48
e 42 69
e 42 70
e 42 73
e 42 74
e 42 75
e 43 47
e 43 49
e 43 55
e 43 56
e 43 57
e 43 59
e 44 66
e 44 68
e 45 46
e 45 48
e 45 50
e 45 52
e 45 54
e 45 63
e 45 69
e 45 70
e 45 72
e 46 48
e 46 50
e 46 52
e 46 53
e 46 54
e 46 63
e 46 69
e 46 72
e 47 49
e 47 55
e 47 56
e 47 57
e 47 67
e 47 71
e 48 50
e 48 54
e 48 69
e 48 70
e 48 72
e 48 73
e 49 55
e 49 56
e 49 57
e 49 67
e 49 71
e 50 52
e 50 53
e 50 54
e 50 61
e 50 63
e 50 69
e 50 72
e 51 58
e 51 59
e 51 60
e 51 62
e 51 64
e 52 53
e 52 54
e 52 61
e 52 63
e 52 65
e 53 54
e 53 61
e 53 63
e 53 65
e 54 61
e 54 63
e 54 69
e 54 72
e 55 56
e 55 57
e 55 67
e 55 71
e 56 57
e 56 67
e 56 71
e 58 59
e 58 60
e 58 62
e 58 64
e 59 64
e 60 62
e 60 64
e 60 76
e 61 63
e 61 65
e 62 64
e 62 76
e 63 69
e 63 72
e 65 66
e 66 68
e 67 71
e 69 70
e 69 72
e 70 73
e 70 74
e 70 75
e 73 74
e 73 75
e 74 75
e 74 76
e 75 76
